NAME: flyfood
TYPE: TSP
COMMENT: Problema de entrega FlyFood
DIMENSION: 11
EDGE_WEIGHT_TYPE: EXPLICIT
EDGE_WEIGHT_FORMAT: UPPER_ROW
EDGE_WEIGHT_SECTION
3 2 5 7 3 5 3 5 4 1
3 4 4 2 2 2 2 5 2
3 5 5 3 1 3 2 3
2 6 4 2 2 1 4
4 2 4 2 3 6
2 4 4 7 2
2 2 5 4
2 3 2
3 4
5
